70
1 0 18
2 0 16
2 1 19
3 0 14
3 1 2
3 2 6
4 0 7
4 1 18
4 2 19
4 3 14
5 0 15
5 1 1
5 2 2
5 3 17
5 4 16
6 0 16
6 1 5
6 2 9
6 3 16
6 4 20
6 5 9
7 0 17
7 1 12
7 2 20
7 3 3
7 4 12
7 5 16
7 6 10
8 0 10
8 1 19
8 2 12
8 3 2
8 4 4
8 5 12
8 6 16
8 7 20
9 0 9
9 1 13
9 2 14
9 3 15
9 4 13
9 5 19
9 6 17
9 7 20
9 8 12
10 0 13
10 1 20
10 2 1
10 3 1
10 4 17
10 5 20
10 6 15
10 7 3
10 8 6
10 9 7
11 0 20
11 1 8
11 2 11
11 3 7
11 4 7
11 5 11
11 6 6
11 7 16
11 8 12
11 9 15
11 10 15
12 0 15
12 1 6
12 2 13
12 3 15
12 4 14
12 5 2
12 6 11
12 7 16
12 8 6
12 9 18
12 10 15
12 11 17
13 0 11
13 1 10
13 2 17
13 3 2
13 4 10
13 5 1
13 6 6
13 7 15
13 8 1
13 9 12
13 10 12
13 11 5
13 12 7
14 0 9
14 1 1
14 2 11
14 3 17
14 4 6
14 5 10
14 6 5
14 7 3
14 8 2
14 9 5
14 10 10
14 11 20
14 12 3
14 13 8
15 0 13
15 1 3
15 2 7
15 3 14
15 4 10
15 5 6
15 6 4
15 7 3
15 8 13
15 9 12
15 10 8
15 11 18
15 12 11
15 13 19
15 14 8
16 0 19
16 1 2
16 2 4
16 3 16
16 4 14
16 5 19
16 6 4
16 7 5
16 8 19
16 9 14
16 10 13
16 11 4
16 12 4
16 13 19
16 14 14
16 15 10
17 0 20
17 1 13
17 2 12
17 3 13
17 4 7
17 5 7
17 6 4
17 7 14
17 8 15
17 9 20
17 10 16
17 11 15
17 12 12
17 13 15
17 14 3
17 15 12
17 16 8
18 0 1
18 1 9
18 2 4
18 3 4
18 4 6
18 5 8
18 6 2
18 7 4
18 8 11
18 9 1
18 10 16
18 11 14
18 12 12
18 13 13
18 14 12
18 15 14
18 16 9
18 17 3
19 0 7
19 1 20
19 2 15
19 3 6
19 4 10
19 5 5
19 6 10
19 7 17
19 8 19
19 9 16
19 10 13
19 11 3
19 12 6
19 13 11
19 14 1
19 15 20
19 16 19
19 17 4
19 18 13
20 0 18
20 1 12
20 2 14
20 3 16
20 4 8
20 5 4
20 6 20
20 7 18
20 8 2
20 9 17
20 10 15
20 11 5
20 12 8
20 13 10
20 14 7
20 15 14
20 16 14
20 17 5
20 18 4
20 19 10
21 0 9
21 1 17
21 2 9
21 3 5
21 4 20
21 5 1
21 6 16
21 7 11
21 8 14
21 9 1
21 10 3
21 11 8
21 12 6
21 13 20
21 14 6
21 15 1
21 16 15
21 17 3
21 18 12
21 19 12
21 20 15
22 0 8
22 1 13
22 2 10
22 3 18
22 4 5
22 5 8
22 6 7
22 7 5
22 8 6
22 9 18
22 10 17
22 11 9
22 12 20
22 13 2
22 14 10
22 15 20
22 16 1
22 17 16
22 18 16
22 19 6
22 20 15
22 21 6
23 0 17
23 1 17
23 2 7
23 3 20
23 4 3
23 5 2
23 6 2
23 7 15
23 8 5
23 9 13
23 10 5
23 11 13
23 12 1
23 13 4
23 14 20
23 15 6
23 16 11
23 17 13
23 18 1
23 19 7
23 20 5
23 21 9
23 22 19
24 0 14
24 1 14
24 2 17
24 3 16
24 4 17
24 5 4
24 6 10
24 7 18
24 8 11
24 9 12
24 10 13
24 11 1
24 12 19
24 13 11
24 14 5
24 15 14
24 16 16
24 17 9
24 18 1
24 19 18
24 20 2
24 21 16
24 22 14
24 23 2
25 0 7
25 1 19
25 2 6
25 3 8
25 4 4
25 5 13
25 6 1
25 7 12
25 8 10
25 9 3
25 10 7
25 11 6
25 12 7
25 13 18
25 14 18
25 15 7
25 16 6
25 17 18
25 18 7
25 19 2
25 20 10
25 21 13
25 22 16
25 23 4
25 24 15
26 0 8
26 1 5
26 2 11
26 3 19
26 4 19
26 5 10
26 6 2
26 7 19
26 8 16
26 9 4
26 10 3
26 11 9
26 12 16
26 13 7
26 14 13
26 15 2
26 16 6
26 17 7
26 18 12
26 19 3
26 20 1
26 21 11
26 22 7
26 23 10
26 24 4
26 25 5
27 0 14
27 1 15
27 2 6
27 3 2
27 4 20
27 5 7
27 6 4
27 7 13
27 8 12
27 9 18
27 10 8
27 11 5
27 12 20
27 13 5
27 14 1
27 15 17
27 16 9
27 17 13
27 18 9
27 19 5
27 20 3
27 21 2
27 22 6
27 23 15
27 24 1
27 25 1
27 26 4
28 0 7
28 1 20
28 2 9
28 3 6
28 4 1
28 5 9
28 6 15
28 7 2
28 8 20
28 9 16
28 10 18
28 11 6
28 12 11
28 13 2
28 14 6
28 15 6
28 16 7
28 17 1
28 18 6
28 19 15
28 20 3
28 21 20
28 22 13
28 23 18
28 24 2
28 25 13
28 26 5
28 27 6
29 0 5
29 1 19
29 2 19
29 3 17
29 4 10
29 5 11
29 6 13
29 7 1
29 8 18
29 9 18
29 10 7
29 11 17
29 12 15
29 13 2
29 14 5
29 15 19
29 16 3
29 17 19
29 18 16
29 19 7
29 20 9
29 21 15
29 22 20
29 23 16
29 24 8
29 25 15
29 26 10
29 27 9
29 28 13
30 0 15
30 1 4
30 2 19
30 3 9
30 4 12
30 5 16
30 6 15
30 7 14
30 8 20
30 9 18
30 10 10
30 11 2
30 12 17
30 13 1
30 14 20
30 15 3
30 16 14
30 17 13
30 18 11
30 19 8
30 20 15
30 21 13
30 22 2
30 23 15
30 24 11
30 25 13
30 26 19
30 27 20
30 28 1
30 29 6
31 0 10
31 1 20
31 2 11
31 3 10
31 4 15
31 5 11
31 6 3
31 7 5
31 8 4
31 9 20
31 10 6
31 11 20
31 12 10
31 13 4
31 14 19
31 15 18
31 16 1
31 17 2
31 18 2
31 19 13
31 20 2
31 21 15
31 22 11
31 23 7
31 24 12
31 25 11
31 26 2
31 27 6
31 28 7
31 29 11
31 30 6
32 0 6
32 1 7
32 2 12
32 3 19
32 4 10
32 5 10
32 6 10
32 7 12
32 8 16
32 9 15
32 10 12
32 11 19
32 12 17
32 13 20
32 14 16
32 15 16
32 16 8
32 17 17
32 18 19
32 19 14
32 20 1
32 21 10
32 22 9
32 23 20
32 24 11
32 25 12
32 26 10
32 27 14
32 28 8
32 29 2
32 30 14
32 31 1
33 0 12
33 1 9
33 2 17
33 3 1
33 4 3
33 5 13
33 6 12
33 7 8
33 8 11
33 9 6
33 10 17
33 11 2
33 12 2
33 13 10
33 14 12
33 15 13
33 16 12
33 17 3
33 18 18
33 19 9
33 20 16
33 21 3
33 22 1
33 23 1
33 24 2
33 25 2
33 26 2
33 27 15
33 28 12
33 29 10
33 30 1
33 31 15
33 32 4
34 0 13
34 1 10
34 2 14
34 3 20
34 4 16
34 5 13
34 6 18
34 7 4
34 8 14
34 9 3
34 10 8
34 11 7
34 12 8
34 13 20
34 14 13
34 15 13
34 16 19
34 17 6
34 18 3
34 19 16
34 20 3
34 21 11
34 22 18
34 23 16
34 24 12
34 25 2
34 26 19
34 27 2
34 28 8
34 29 19
34 30 18
34 31 17
34 32 16
34 33 18
35 0 16
35 1 4
35 2 19
35 3 17
35 4 13
35 5 1
35 6 1
35 7 16
35 8 20
35 9 17
35 10 10
35 11 8
35 12 6
35 13 2
35 14 17
35 15 9
35 16 17
35 17 19
35 18 16
35 19 3
35 20 2
35 21 8
35 22 15
35 23 20
35 24 2
35 25 20
35 26 16
35 27 13
35 28 11
35 29 18
35 30 4
35 31 13
35 32 13
35 33 3
35 34 2
36 0 10
36 1 16
36 2 11
36 3 6
36 4 1
36 5 4
36 6 10
36 7 5
36 8 16
36 9 15
36 10 8
36 11 9
36 12 6
36 13 6
36 14 1
36 15 2
36 16 6
36 17 1
36 18 11
36 19 10
36 20 1
36 21 3
36 22 12
36 23 3
36 24 20
36 25 13
36 26 7
36 27 15
36 28 16
36 29 9
36 30 12
36 31 9
36 32 2
36 33 13
36 34 12
36 35 6
37 0 15
37 1 14
37 2 14
37 3 8
37 4 17
37 5 10
37 6 4
37 7 20
37 8 15
37 9 6
37 10 12
37 11 18
37 12 12
37 13 10
37 14 12
37 15 11
37 16 6
37 17 14
37 18 5
37 19 15
37 20 8
37 21 13
37 22 12
37 23 12
37 24 5
37 25 15
37 26 11
37 27 1
37 28 4
37 29 17
37 30 5
37 31 10
37 32 11
37 33 4
37 34 6
37 35 4
37 36 15
38 0 8
38 1 20
38 2 8
38 3 3
38 4 2
38 5 14
38 6 12
38 7 10
38 8 14
38 9 10
38 10 19
38 11 8
38 12 9
38 13 1
38 14 2
38 15 14
38 16 13
38 17 9
38 18 10
38 19 11
38 20 14
38 21 1
38 22 18
38 23 6
38 24 1
38 25 14
38 26 7
38 27 12
38 28 11
38 29 11
38 30 17
38 31 1
38 32 8
38 33 1
38 34 18
38 35 11
38 36 19
38 37 2
39 0 8
39 1 10
39 2 1
39 3 16
39 4 7
39 5 10
39 6 14
39 7 19
39 8 9
39 9 5
39 10 19
39 11 1
39 12 1
39 13 11
39 14 11
39 15 5
39 16 14
39 17 15
39 18 20
39 19 2
39 20 9
39 21 10
39 22 9
39 23 16
39 24 18
39 25 13
39 26 15
39 27 10
39 28 11
39 29 6
39 30 5
39 31 1
39 32 14
39 33 17
39 34 10
39 35 12
39 36 6
39 37 4
39 38 10
40 0 12
40 1 2
40 2 12
40 3 7
40 4 11
40 5 7
40 6 13
40 7 4
40 8 3
40 9 20
40 10 14
40 11 5
40 12 11
40 13 7
40 14 6
40 15 11
40 16 13
40 17 16
40 18 16
40 19 11
40 20 1
40 21 5
40 22 4
40 23 5
40 24 2
40 25 11
40 26 9
40 27 15
40 28 4
40 29 19
40 30 7
40 31 6
40 32 5
40 33 18
40 34 9
40 35 16
40 36 8
40 37 6
40 38 11
40 39 4
41 0 13
41 1 12
41 2 18
41 3 8
41 4 19
41 5 11
41 6 5
41 7 1
41 8 16
41 9 1
41 10 16
41 11 20
41 12 19
41 13 12
41 14 7
41 15 5
41 16 2
41 17 19
41 18 20
41 19 17
41 20 6
41 21 3
41 22 4
41 23 4
41 24 14
41 25 9
41 26 14
41 27 9
41 28 19
41 29 16
41 30 1
41 31 12
41 32 6
41 33 5
41 34 15
41 35 10
41 36 18
41 37 4
41 38 17
41 39 4
41 40 18
42 0 17
42 1 20
42 2 19
42 3 17
42 4 1
42 5 16
42 6 19
42 7 3
42 8 11
42 9 11
42 10 10
42 11 15
42 12 4
42 13 19
42 14 11
42 15 3
42 16 17
42 17 5
42 18 8
42 19 9
42 20 13
42 21 5
42 22 3
42 23 7
42 24 12
42 25 3
42 26 11
42 27 14
42 28 7
42 29 14
42 30 7
42 31 7
42 32 7
42 33 15
42 34 5
42 35 17
42 36 4
42 37 20
42 38 4
42 39 8
42 40 14
42 41 13
43 0 11
43 1 9
43 2 16
43 3 20
43 4 20
43 5 2
43 6 14
43 7 17
43 8 16
43 9 1
43 10 8
43 11 2
43 12 13
43 13 14
43 14 2
43 15 5
43 16 17
43 17 3
43 18 9
43 19 7
43 20 16
43 21 10
43 22 4
43 23 5
43 24 2
43 25 7
43 26 11
43 27 1
43 28 1
43 29 1
43 30 20
43 31 5
43 32 7
43 33 6
43 34 18
43 35 12
43 36 6
43 37 5
43 38 16
43 39 1
43 40 11
43 41 11
43 42 2
44 0 13
44 1 11
44 2 10
44 3 20
44 4 12
44 5 7
44 6 11
44 7 14
44 8 7
44 9 15
44 10 4
44 11 13
44 12 10
44 13 11
44 14 15
44 15 13
44 16 5
44 17 4
44 18 3
44 19 15
44 20 9
44 21 2
44 22 3
44 23 17
44 24 19
44 25 11
44 26 12
44 27 11
44 28 5
44 29 9
44 30 6
44 31 14
44 32 12
44 33 1
44 34 8
44 35 20
44 36 20
44 37 4
44 38 9
44 39 9
44 40 18
44 41 3
44 42 2
44 43 8
45 0 2
45 1 16
45 2 15
45 3 10
45 4 8
45 5 13
45 6 11
45 7 9
45 8 13
45 9 8
45 10 12
45 11 17
45 12 20
45 13 9
45 14 20
45 15 4
45 16 8
45 17 16
45 18 8
45 19 5
45 20 10
45 21 18
45 22 7
45 23 11
45 24 6
45 25 19
45 26 15
45 27 13
45 28 3
45 29 16
45 30 5
45 31 14
45 32 7
45 33 17
45 34 17
45 35 3
45 36 4
45 37 18
45 38 19
45 39 17
45 40 3
45 41 11
45 42 1
45 43 8
45 44 6
46 0 19
46 1 6
46 2 5
46 3 19
46 4 13
46 5 3
46 6 10
46 7 13
46 8 9
46 9 7
46 10 5
46 11 7
46 12 3
46 13 9
46 14 4
46 15 13
46 16 16
46 17 20
46 18 15
46 19 18
46 20 10
46 21 11
46 22 19
46 23 18
46 24 7
46 25 12
46 26 15
46 27 5
46 28 17
46 29 8
46 30 15
46 31 1
46 32 11
46 33 7
46 34 1
46 35 18
46 36 8
46 37 7
46 38 4
46 39 14
46 40 6
46 41 12
46 42 7
46 43 18
46 44 15
46 45 15
47 0 9
47 1 14
47 2 3
47 3 3
47 4 6
47 5 19
47 6 2
47 7 3
47 8 18
47 9 4
47 10 16
47 11 5
47 12 3
47 13 6
47 14 8
47 15 3
47 16 3
47 17 19
47 18 15
47 19 11
47 20 1
47 21 10
47 22 18
47 23 20
47 24 12
47 25 19
47 26 11
47 27 5
47 28 20
47 29 12
47 30 6
47 31 12
47 32 10
47 33 17
47 34 17
47 35 14
47 36 19
47 37 18
47 38 17
47 39 10
47 40 5
47 41 6
47 42 17
47 43 2
47 44 17
47 45 3
47 46 19
48 0 4
48 1 7
48 2 2
48 3 5
48 4 2
48 5 5
48 6 6
48 7 4
48 8 5
48 9 15
48 10 19
48 11 6
48 12 7
48 13 18
48 14 16
48 15 12
48 16 1
48 17 13
48 18 2
48 19 12
48 20 15
48 21 9
48 22 9
48 23 3
48 24 6
48 25 16
48 26 13
48 27 3
48 28 16
48 29 13
48 30 11
48 31 17
48 32 16
48 33 2
48 34 16
48 35 15
48 36 16
48 37 14
48 38 1
48 39 15
48 40 7
48 41 20
48 42 11
48 43 2
48 44 14
48 45 8
48 46 9
48 47 19
49 0 17
49 1 16
49 2 14
49 3 20
49 4 7
49 5 5
49 6 5
49 7 2
49 8 12
49 9 4
49 10 1
49 11 2
49 12 3
49 13 18
49 14 15
49 15 20
49 16 9
49 17 7
49 18 13
49 19 20
49 20 16
49 21 12
49 22 9
49 23 17
49 24 9
49 25 5
49 26 17
49 27 1
49 28 18
49 29 4
49 30 3
49 31 13
49 32 9
49 33 18
49 34 1
49 35 2
49 36 13
49 37 19
49 38 4
49 39 17
49 40 19
49 41 12
49 42 6
49 43 18
49 44 4
49 45 18
49 46 11
49 47 12
49 48 16
50 0 17
50 1 6
50 2 6
50 3 14
50 4 2
50 5 7
50 6 2
50 7 14
50 8 12
50 9 18
50 10 15
50 11 1
50 12 10
50 13 17
50 14 5
50 15 19
50 16 6
50 17 12
50 18 14
50 19 10
50 20 10
50 21 18
50 22 19
50 23 2
50 24 17
50 25 5
50 26 7
50 27 18
50 28 4
50 29 3
50 30 7
50 31 11
50 32 8
50 33 11
50 34 20
50 35 10
50 36 9
50 37 7
50 38 14
50 39 17
50 40 12
50 41 19
50 42 2
50 43 19
50 44 12
50 45 18
50 46 5
50 47 16
50 48 4
50 49 16
51 0 15
51 1 11
51 2 15
51 3 20
51 4 19
51 5 6
51 6 19
51 7 17
51 8 17
51 9 8
51 10 3
51 11 19
51 12 20
51 13 7
51 14 8
51 15 19
51 16 18
51 17 6
51 18 10
51 19 18
51 20 19
51 21 11
51 22 13
51 23 19
51 24 5
51 25 12
51 26 4
51 27 19
51 28 3
51 29 2
51 30 19
51 31 18
51 32 17
51 33 2
51 34 20
51 35 14
51 36 10
51 37 12
51 38 12
51 39 16
51 40 3
51 41 11
51 42 3
51 43 15
51 44 10
51 45 15
51 46 3
51 47 1
51 48 11
51 49 5
51 50 2
52 0 2
52 1 13
52 2 17
52 3 8
52 4 16
52 5 11
52 6 10
52 7 18
52 8 14
52 9 3
52 10 1
52 11 13
52 12 1
52 13 14
52 14 1
52 15 19
52 16 20
52 17 2
52 18 8
52 19 7
52 20 9
52 21 10
52 22 1
52 23 5
52 24 6
52 25 16
52 26 20
52 27 5
52 28 19
52 29 13
52 30 12
52 31 9
52 32 13
52 33 10
52 34 9
52 35 6
52 36 20
52 37 6
52 38 6
52 39 8
52 40 1
52 41 8
52 42 6
52 43 8
52 44 20
52 45 4
52 46 13
52 47 12
52 48 7
52 49 5
52 50 18
52 51 5
53 0 1
53 1 4
53 2 7
53 3 8
53 4 11
53 5 18
53 6 3
53 7 4
53 8 10
53 9 13
53 10 11
53 11 12
53 12 17
53 13 8
53 14 7
53 15 16
53 16 15
53 17 19
53 18 18
53 19 4
53 20 17
53 21 9
53 22 8
53 23 14
53 24 4
53 25 5
53 26 13
53 27 9
53 28 14
53 29 20
53 30 4
53 31 2
53 32 4
53 33 20
53 34 9
53 35 17
53 36 5
53 37 10
53 38 15
53 39 9
53 40 4
53 41 18
53 42 20
53 43 16
53 44 5
53 45 3
53 46 19
53 47 18
53 48 16
53 49 13
53 50 3
53 51 16
53 52 17
54 0 12
54 1 3
54 2 20
54 3 9
54 4 19
54 5 1
54 6 17
54 7 7
54 8 5
54 9 2
54 10 19
54 11 4
54 12 11
54 13 15
54 14 14
54 15 1
54 16 4
54 17 17
54 18 3
54 19 16
54 20 6
54 21 15
54 22 16
54 23 18
54 24 8
54 25 16
54 26 10
54 27 5
54 28 10
54 29 18
54 30 4
54 31 11
54 32 10
54 33 3
54 34 19
54 35 1
54 36 19
54 37 19
54 38 8
54 39 19
54 40 4
54 41 4
54 42 8
54 43 10
54 44 10
54 45 6
54 46 3
54 47 6
54 48 1
54 49 18
54 50 8
54 51 11
54 52 9
54 53 1
55 0 11
55 1 19
55 2 10
55 3 12
55 4 18
55 5 11
55 6 1
55 7 17
55 8 3
55 9 4
55 10 4
55 11 18
55 12 18
55 13 13
55 14 20
55 15 13
55 16 11
55 17 5
55 18 17
55 19 11
55 20 3
55 21 1
55 22 8
55 23 5
55 24 20
55 25 3
55 26 19
55 27 15
55 28 12
55 29 19
55 30 7
55 31 16
55 32 6
55 33 15
55 34 13
55 35 3
55 36 19
55 37 10
55 38 14
55 39 10
55 40 16
55 41 12
55 42 20
55 43 14
55 44 5
55 45 2
55 46 6
55 47 7
55 48 17
55 49 2
55 50 5
55 51 16
55 52 6
55 53 17
55 54 14
56 0 1
56 1 20
56 2 3
56 3 1
56 4 6
56 5 20
56 6 13
56 7 9
56 8 9
56 9 3
56 10 13
56 11 8
56 12 2
56 13 15
56 14 18
56 15 3
56 16 19
56 17 19
56 18 4
56 19 9
56 20 9
56 21 18
56 22 6
56 23 18
56 24 6
56 25 6
56 26 6
56 27 19
56 28 18
56 29 15
56 30 2
56 31 7
56 32 6
56 33 7
56 34 7
56 35 20
56 36 13
56 37 20
56 38 7
56 39 9
56 40 11
56 41 10
56 42 18
56 43 19
56 44 19
56 45 20
56 46 14
56 47 14
56 48 20
56 49 9
56 50 13
56 51 20
56 52 14
56 53 12
56 54 6
56 55 1
57 0 7
57 1 18
57 2 12
57 3 11
57 4 3
57 5 13
57 6 20
57 7 2
57 8 13
57 9 20
57 10 5
57 11 11
57 12 20
57 13 13
57 14 16
57 15 8
57 16 3
57 17 6
57 18 15
57 19 15
57 20 19
57 21 3
57 22 17
57 23 16
57 24 17
57 25 15
57 26 3
57 27 6
57 28 7
57 29 10
57 30 20
57 31 15
57 32 6
57 33 1
57 34 12
57 35 18
57 36 1
57 37 17
57 38 11
57 39 2
57 40 12
57 41 2
57 42 11
57 43 20
57 44 7
57 45 19
57 46 13
57 47 4
57 48 7
57 49 12
57 50 1
57 51 15
57 52 2
57 53 4
57 54 1
57 55 4
57 56 3
58 0 1
58 1 20
58 2 15
58 3 16
58 4 7
58 5 3
58 6 20
58 7 7
58 8 16
58 9 11
58 10 11
58 11 4
58 12 3
58 13 16
58 14 20
58 15 13
58 16 7
58 17 4
58 18 7
58 19 13
58 20 5
58 21 6
58 22 3
58 23 7
58 24 17
58 25 8
58 26 16
58 27 18
58 28 16
58 29 17
58 30 13
58 31 15
58 32 19
58 33 14
58 34 14
58 35 14
58 36 1
58 37 8
58 38 8
58 39 7
58 40 8
58 41 5
58 42 8
58 43 4
58 44 19
58 45 6
58 46 14
58 47 18
58 48 11
58 49 4
58 50 17
58 51 9
58 52 17
58 53 17
58 54 3
58 55 7
58 56 11
58 57 19
59 0 4
59 1 4
59 2 15
59 3 10
59 4 4
59 5 18
59 6 15
59 7 15
59 8 19
59 9 19
59 10 19
59 11 17
59 12 4
59 13 12
59 14 13
59 15 4
59 16 13
59 17 12
59 18 9
59 19 7
59 20 9
59 21 4
59 22 18
59 23 11
59 24 12
59 25 2
59 26 3
59 27 2
59 28 3
59 29 8
59 30 3
59 31 5
59 32 18
59 33 10
59 34 10
59 35 16
59 36 10
59 37 16
59 38 17
59 39 12
59 40 6
59 41 8
59 42 9
59 43 5
59 44 4
59 45 15
59 46 8
59 47 3
59 48 13
59 49 15
59 50 1
59 51 16
59 52 9
59 53 19
59 54 8
59 55 3
59 56 10
59 57 9
59 58 5
60 0 5
60 1 12
60 2 8
60 3 2
60 4 9
60 5 2
60 6 6
60 7 8
60 8 2
60 9 7
60 10 14
60 11 4
60 12 14
60 13 12
60 14 2
60 15 4
60 16 18
60 17 14
60 18 11
60 19 16
60 20 6
60 21 2
60 22 16
60 23 18
60 24 18
60 25 4
60 26 20
60 27 4
60 28 16
60 29 3
60 30 16
60 31 3
60 32 20
60 33 18
60 34 18
60 35 14
60 36 14
60 37 11
60 38 10
60 39 3
60 40 2
60 41 2
60 42 16
60 43 14
60 44 20
60 45 12
60 46 18
60 47 11
60 48 7
60 49 5
60 50 1
60 51 15
60 52 20
60 53 7
60 54 9
60 55 5
60 56 5
60 57 18
60 58 12
60 59 5
61 0 17
61 1 18
61 2 16
61 3 10
61 4 7
61 5 15
61 6 2
61 7 17
61 8 11
61 9 20
61 10 19
61 11 8
61 12 15
61 13 17
61 14 3
61 15 11
61 16 7
61 17 19
61 18 10
61 19 20
61 20 11
61 21 15
61 22 7
61 23 9
61 24 17
61 25 2
61 26 20
61 27 16
61 28 17
61 29 16
61 30 7
61 31 9
61 32 10
61 33 9
61 34 8
61 35 11
61 36 12
61 37 11
61 38 13
61 39 6
61 40 12
61 41 11
61 42 11
61 43 17
61 44 8
61 45 4
61 46 10
61 47 13
61 48 2
61 49 18
61 50 7
61 51 13
61 52 11
61 53 4
61 54 9
61 55 12
61 56 9
61 57 11
61 58 5
61 59 4
61 60 13
62 0 15
62 1 18
62 2 2
62 3 4
62 4 2
62 5 15
62 6 20
62 7 3
62 8 15
62 9 13
62 10 3
62 11 9
62 12 3
62 13 4
62 14 15
62 15 6
62 16 6
62 17 6
62 18 3
62 19 2
62 20 11
62 21 9
62 22 11
62 23 11
62 24 14
62 25 5
62 26 19
62 27 6
62 28 18
62 29 6
62 30 6
62 31 16
62 32 11
62 33 3
62 34 10
62 35 3
62 36 8
62 37 1
62 38 2
62 39 8
62 40 9
62 41 12
62 42 1
62 43 11
62 44 17
62 45 9
62 46 12
62 47 18
62 48 11
62 49 10
62 50 14
62 51 11
62 52 7
62 53 9
62 54 1
62 55 15
62 56 7
62 57 10
62 58 12
62 59 19
62 60 15
62 61 9
63 0 15
63 1 9
63 2 3
63 3 17
63 4 20
63 5 12
63 6 5
63 7 11
63 8 4
63 9 15
63 10 12
63 11 2
63 12 20
63 13 6
63 14 9
63 15 13
63 16 20
63 17 9
63 18 16
63 19 11
63 20 19
63 21 19
63 22 8
63 23 8
63 24 5
63 25 4
63 26 2
63 27 10
63 28 12
63 29 10
63 30 11
63 31 7
63 32 7
63 33 11
63 34 9
63 35 16
63 36 17
63 37 4
63 38 11
63 39 6
63 40 1
63 41 10
63 42 10
63 43 20
63 44 7
63 45 14
63 46 12
63 47 17
63 48 13
63 49 4
63 50 19
63 51 3
63 52 18
63 53 20
63 54 18
63 55 13
63 56 10
63 57 17
63 58 12
63 59 4
63 60 1
63 61 17
63 62 19
64 0 12
64 1 5
64 2 18
64 3 8
64 4 12
64 5 3
64 6 17
64 7 10
64 8 6
64 9 8
64 10 13
64 11 4
64 12 2
64 13 9
64 14 9
64 15 10
64 16 10
64 17 6
64 18 19
64 19 2
64 20 10
64 21 5
64 22 12
64 23 13
64 24 18
64 25 14
64 26 6
64 27 10
64 28 3
64 29 17
64 30 11
64 31 3
64 32 15
64 33 14
64 34 20
64 35 8
64 36 10
64 37 13
64 38 5
64 39 20
64 40 2
64 41 3
64 42 19
64 43 17
64 44 4
64 45 18
64 46 16
64 47 2
64 48 12
64 49 7
64 50 7
64 51 3
64 52 15
64 53 1
64 54 11
64 55 6
64 56 20
64 57 15
64 58 17
64 59 12
64 60 3
64 61 15
64 62 9
64 63 11
65 0 8
65 1 5
65 2 19
65 3 19
65 4 7
65 5 19
65 6 6
65 7 3
65 8 20
65 9 19
65 10 13
65 11 4
65 12 20
65 13 2
65 14 9
65 15 12
65 16 7
65 17 7
65 18 9
65 19 4
65 20 4
65 21 15
65 22 13
65 23 18
65 24 16
65 25 16
65 26 5
65 27 13
65 28 7
65 29 1
65 30 19
65 31 15
65 32 17
65 33 3
65 34 7
65 35 18
65 36 14
65 37 17
65 38 14
65 39 9
65 40 14
65 41 10
65 42 12
65 43 1
65 44 18
65 45 12
65 46 6
65 47 17
65 48 8
65 49 2
65 50 16
65 51 19
65 52 5
65 53 19
65 54 9
65 55 4
65 56 4
65 57 20
65 58 16
65 59 10
65 60 4
65 61 18
65 62 14
65 63 7
65 64 1
66 0 15
66 1 4
66 2 15
66 3 9
66 4 18
66 5 17
66 6 9
66 7 10
66 8 2
66 9 17
66 10 7
66 11 19
66 12 9
66 13 15
66 14 15
66 15 8
66 16 9
66 17 7
66 18 18
66 19 1
66 20 11
66 21 6
66 22 1
66 23 19
66 24 12
66 25 1
66 26 10
66 27 3
66 28 14
66 29 12
66 30 4
66 31 13
66 32 2
66 33 17
66 34 5
66 35 15
66 36 17
66 37 20
66 38 1
66 39 18
66 40 17
66 41 20
66 42 1
66 43 17
66 44 15
66 45 3
66 46 13
66 47 3
66 48 8
66 49 8
66 50 2
66 51 12
66 52 6
66 53 3
66 54 19
66 55 11
66 56 9
66 57 17
66 58 2
66 59 16
66 60 9
66 61 12
66 62 15
66 63 15
66 64 1
66 65 18
67 0 15
67 1 4
67 2 15
67 3 17
67 4 17
67 5 13
67 6 4
67 7 13
67 8 2
67 9 14
67 10 16
67 11 1
67 12 13
67 13 6
67 14 12
67 15 5
67 16 6
67 17 13
67 18 3
67 19 11
67 20 5
67 21 7
67 22 8
67 23 3
67 24 1
67 25 12
67 26 6
67 27 15
67 28 10
67 29 20
67 30 19
67 31 20
67 32 11
67 33 8
67 34 16
67 35 13
67 36 12
67 37 14
67 38 6
67 39 13
67 40 3
67 41 2
67 42 17
67 43 20
67 44 6
67 45 11
67 46 16
67 47 10
67 48 9
67 49 11
67 50 15
67 51 9
67 52 15
67 53 3
67 54 16
67 55 2
67 56 17
67 57 16
67 58 16
67 59 19
67 60 8
67 61 5
67 62 17
67 63 19
67 64 7
67 65 3
67 66 8
68 0 2
68 1 15
68 2 2
68 3 9
68 4 14
68 5 17
68 6 17
68 7 3
68 8 5
68 9 14
68 10 6
68 11 6
68 12 11
68 13 1
68 14 2
68 15 11
68 16 3
68 17 20
68 18 5
68 19 14
68 20 13
68 21 7
68 22 12
68 23 7
68 24 20
68 25 8
68 26 12
68 27 19
68 28 9
68 29 12
68 30 1
68 31 12
68 32 2
68 33 11
68 34 14
68 35 8
68 36 14
68 37 2
68 38 19
68 39 14
68 40 1
68 41 20
68 42 11
68 43 2
68 44 16
68 45 14
68 46 12
68 47 15
68 48 6
68 49 14
68 50 10
68 51 11
68 52 15
68 53 18
68 54 12
68 55 15
68 56 8
68 57 11
68 58 6
68 59 2
68 60 1
68 61 1
68 62 15
68 63 16
68 64 18
68 65 15
68 66 8
68 67 1
69 0 1
69 1 17
69 2 12
69 3 8
69 4 4
69 5 18
69 6 1
69 7 13
69 8 9
69 9 7
69 10 14
69 11 2
69 12 11
69 13 3
69 14 20
69 15 5
69 16 2
69 17 16
69 18 2
69 19 9
69 20 7
69 21 14
69 22 15
69 23 2
69 24 1
69 25 20
69 26 13
69 27 14
69 28 16
69 29 16
69 30 16
69 31 7
69 32 4
69 33 20
69 34 17
69 35 10
69 36 3
69 37 20
69 38 20
69 39 1
69 40 9
69 41 15
69 42 4
69 43 15
69 44 17
69 45 12
69 46 20
69 47 19
69 48 1
69 49 18
69 50 17
69 51 18
69 52 11
69 53 15
69 54 3
69 55 3
69 56 10
69 57 16
69 58 15
69 59 3
69 60 1
69 61 7
69 62 2
69 63 4
69 64 20
69 65 6
69 66 16
69 67 2
69 68 18
